n = 15;
m = 62;
p = 1.1;

word_lens = [ 4, 5, 5, 5, 5, 5, 5, 5, 6, 6, 6, 6, 6, 6, 6, 6, 6, 6, 6, 6, 7, 7, 7, 7, 7, 7, 7, 7, 8, 8, 8, 8, 8, 8, 8, 9, 9, 9, 9, 9, 9, 9, 9, 9, 9, 9, 9, 9, 9, 9, 10, 10, 10, 10, 11, 11, 11, 12, 12, 12, 13, 14 ];
words = [ "MIEN", "SHOWY", "FANCY", "BRASH", "SUAVE", "GRUFF", "SPAIN", "MACHO", "FLORID", "FLASHY", "GENIAL", "FEISTY", "URBANE", "DAPPER", "BOYISH", "JOVIAL", "ROTUND", "PORTLY", "RAKISH", "FRANCE", "AFFABLE", "VOLUBLE", "PERSONA", "SPLASHY", "DELONIX", "SHOWMAN", "BIZARRE", "STYLISH", "TACITURN", "PORTUGAL", "COLORFUL", "PENCHANT", "MAVERICK", "POPULIST", "FAMOUSLY", "ECCENTRIC", "OUTSPOKEN", "EBULLIENT", "MERCURIAL", "GLAMOROUS", "ENIGMATIC", "COMBATIVE", "BOMBASTIC", "IRASCIBLE", "GARRULOUS", "IMPERIOUS", "EXUBERANT", "EASYGOING", "SEMBLANCE", "RAYONNANT", "PUGNACIOUS", "DIMINUTIVE", "OUTLANDISH", "APPEARANCE", "EXTRAVAGANT", "PRETENTIOUS", "RESPLENDENT", "ICONOCLASTIC", "ARCHITECTURE", "UNRESTRAINED", "TEMPERAMENTAL", "POINCIANAREGIA" ];

overlaps = [| 94, 91, 91, 91, 91, 91, 92, 91, 89, 89, 90, 90, 90, 89, 89, 89, 89, 89, 89, 90, 88, 88, 88, 87, 88, 88, 88, 88, 86, 85, 85, 87, 87, 86, 86, 85, 84, 85, 85, 84, 86, 85, 84, 85, 84, 85, 85, 85, 85, 85, 83, 84, 83, 83, 81, 82, 82, 80, 80, 80, 79, 77 | 91, 91, 89, 89, 89, 88, 89, 89, 87, 88, 86, 87, 86, 86, 88, 87, 87, 87, 87, 86, 84, 84, 85, 86, 84, 86, 84, 86, 82, 82, 83, 82, 82, 83, 83, 80, 81, 80, 80, 81, 80, 80, 80, 80, 80, 80, 80, 81, 80, 80, 78, 77, 79, 77, 75, 76, 76, 74, 73, 73, 71, 69 | 91, 89, 91, 89, 89, 89, 89, 89, 87, 88, 87, 87, 87, 87, 87, 87, 87, 87, 87, 88, 86, 84, 85, 85, 84, 85, 84, 84, 83, 82, 83, 84, 83, 82, 83, 81, 80, 80, 80, 80, 81, 80, 80, 80, 80, 80, 80, 81, 81, 82, 79, 78, 78, 80, 77, 76, 76, 75, 74, 74, 72, 71 | 91, 89, 89, 91, 89, 89, 89, 89, 87, 88, 87, 87, 88, 87, 88, 87, 87, 87, 88, 87, 85, 84, 85, 86, 84, 85, 86, 85, 83, 83, 82, 83, 83, 82, 83, 80, 80, 80, 81, 81, 80, 80, 81, 81, 81, 80, 81, 80, 81, 81, 78, 77, 79, 79, 77, 76, 76, 74, 75, 75, 72, 70 | 91, 89, 89, 89, 91, 89, 89, 89, 86, 87, 87, 87, 88, 87, 87, 87, 87, 86, 87, 87, 85, 85, 85, 85, 84, 85, 85, 85, 83, 83, 82, 83, 83, 83, 83, 80, 81, 81, 81, 81, 80, 81, 80, 81, 81, 81, 81, 81, 81, 80, 79, 79, 79, 80, 77, 77, 77, 74, 75, 75, 73, 70 | 91, 88, 89, 89, 89, 92, 88, 88, 88, 87, 87, 87, 87, 87, 86, 86, 87, 87, 87, 88, 86, 84, 84, 84, 84, 84, 85, 84, 83, 83, 84, 82, 82, 82, 83, 80, 80, 80, 81, 81, 80, 80, 80, 80, 82, 80, 80, 80, 80, 80, 79, 78, 78, 78, 76, 76, 76, 73, 74, 74, 71, 69 | 92, 89, 89, 89, 89, 88, 91, 89, 87, 87, 88, 87, 87, 88, 87, 87, 87, 87, 88, 87, 85, 84, 86, 86, 85, 85, 85, 85, 83, 83, 82, 84, 83, 84, 83, 80, 81, 80, 80, 80, 81, 80, 81, 81, 80, 81, 80, 81, 81, 82, 80, 79, 79, 80, 77, 77, 77, 75, 74, 75, 72, 72 | 91, 89, 89, 89, 89, 88, 89, 91, 87, 87, 87, 86, 87, 87, 87, 87, 87, 87, 87, 87, 85, 84, 85, 85, 84, 86, 84, 84, 83, 83, 83, 83, 83, 82, 83, 81, 80, 80, 81, 81, 81, 81, 81, 80, 80, 80, 80, 80, 81, 81, 79, 78, 79, 79, 76, 76, 75, 76, 75, 73, 72, 71 | 89, 87, 87, 87, 86, 88, 87, 87, 86, 84, 84, 84, 84, 84, 84, 85, 85, 85, 84, 84, 82, 82, 82, 81, 83, 81, 82, 82, 79, 80, 81, 78, 79, 80, 80, 76, 76, 77, 77, 77, 76, 76, 76, 77, 77, 77, 76, 76, 76, 76, 74, 75, 75, 73, 71, 72, 72, 70, 69, 69, 66, 64 | 89, 88, 88, 88, 87, 87, 87, 87, 84, 86, 84, 85, 84, 84, 85, 84, 84, 84, 85, 84, 83, 82, 82, 84, 81, 82, 81, 83, 79, 79, 80, 79, 79, 79, 80, 76, 76, 76, 76, 77, 76, 76, 76, 77, 77, 76, 76, 77, 77, 77, 74, 73, 75, 74, 72, 71, 71, 69, 68, 68, 66, 64 | 90, 86, 87, 87, 87, 87, 88, 87, 84, 84, 86, 84, 85, 84, 84, 85, 84, 84, 84, 85, 83, 82, 82, 82, 83, 82, 82, 82, 80, 80, 79, 80, 80, 79, 79, 77, 76, 78, 77, 77, 78, 77, 76, 78, 77, 77, 77, 78, 78, 78, 75, 75, 75, 76, 73, 72, 73, 70, 69, 70, 68, 67 | 90, 87, 87, 87, 87, 87, 87, 86, 84, 85, 84, 86, 84, 84, 85, 84, 84, 84, 84, 84, 82, 81, 82, 82, 82, 81, 82, 83, 80, 79, 79, 79, 79, 80, 80, 77, 77, 77, 76, 76, 77, 77, 77, 77, 76, 77, 77, 77, 77, 76, 74, 75, 74, 74, 72, 73, 72, 69, 70, 70, 67, 64 | 90, 86, 87, 88, 88, 87, 87, 87, 84, 84, 85, 84, 86, 85, 84, 84, 85, 84, 84, 85, 83, 82, 83, 81, 82, 82, 83, 81, 80, 80, 79, 80, 80, 79, 79, 77, 77, 78, 78, 77, 77, 77, 77, 77, 78, 77, 79, 77, 78, 78, 75, 74, 74, 76, 73, 72, 73, 68, 70, 71, 68, 65 | 89, 86, 87, 87, 87, 87, 88, 87, 84, 84, 84, 84, 85, 87, 84, 84, 84, 85, 84, 85, 82, 81, 83, 82, 82, 81, 83, 81, 79, 80, 79, 80, 80, 80, 79, 77, 77, 76, 77, 76, 76, 76, 76, 77, 77, 77, 77, 76, 77, 77, 74, 74, 74, 77, 72, 72, 73, 68, 70, 70, 68, 65 | 89, 88, 87, 88, 87, 86, 87, 87, 84, 85, 84, 85, 84, 84, 86, 84, 84, 84, 85, 84, 81, 82, 82, 83, 82, 82, 82, 83, 79, 79, 79, 79, 79, 80, 80, 76, 77, 76, 76, 77, 76, 77, 78, 77, 76, 77, 76, 77, 76, 76, 74, 74, 75, 73, 70, 72, 71, 70, 68, 68, 65, 64 | 89, 87, 87, 87, 87, 86, 87, 87, 85, 84, 85, 84, 84, 84, 84, 86, 84, 84, 84, 84, 82, 83, 82, 82, 82, 82, 82, 82, 79, 80, 80, 79, 80, 80, 80, 76, 76, 77, 77, 77, 77, 77, 77, 77, 77, 77, 76, 77, 76, 77, 74, 75, 75, 74, 72, 71, 71, 70, 68, 68, 66, 65 | 89, 87, 87, 87, 87, 87, 87, 87, 85, 84, 84, 84, 85, 84, 84, 84, 86, 85, 84, 84, 81, 82, 82, 81, 82, 82, 82, 81, 80, 80, 80, 80, 79, 80, 79, 77, 78, 77, 77, 77, 76, 76, 76, 76, 78, 77, 77, 76, 76, 78, 75, 75, 75, 74, 72, 73, 72, 69, 70, 71, 67, 64 | 89, 87, 87, 87, 86, 87, 87, 87, 85, 84, 84, 84, 84, 85, 84, 84, 85, 86, 84, 84, 81, 82, 82, 82, 82, 81, 82, 82, 80, 80, 80, 79, 79, 80, 80, 76, 77, 77, 77, 77, 76, 76, 76, 76, 77, 77, 76, 76, 76, 77, 74, 73, 74, 74, 72, 72, 72, 69, 69, 69, 67, 64 | 89, 87, 87, 88, 87, 87, 88, 87, 84, 85, 84, 84, 84, 84, 85, 84, 84, 84, 86, 84, 82, 81, 82, 83, 81, 82, 83, 83, 80, 79, 79, 79, 80, 79, 79, 76, 76, 76, 77, 77, 77, 76, 77, 78, 77, 77, 76, 77, 76, 77, 74, 74, 75, 75, 72, 72, 71, 69, 70, 70, 66, 65 | 90, 86, 88, 87, 87, 88, 87, 87, 84, 84, 85, 84, 85, 85, 84, 84, 84, 84, 84, 86, 83, 81, 83, 81, 82, 82, 83, 81, 80, 79, 80, 80, 80, 78, 79, 79, 76, 77, 78, 76, 77, 77, 76, 77, 77, 76, 78, 77, 78, 78, 74, 74, 74, 76, 73, 72, 73, 70, 71, 71, 68, 66 | 88, 84, 86, 85, 85, 86, 85, 85, 82, 83, 83, 82, 83, 82, 81, 82, 81, 81, 82, 83, 83, 80, 79, 79, 79, 79, 80, 78, 75, 76, 76, 76, 76, 75, 77, 72, 72, 74, 73, 73, 73, 73, 73, 74, 73, 72, 74, 73, 74, 73, 69, 69, 70, 72, 68, 66, 67, 64, 64, 64, 63, 59 | 88, 84, 84, 84, 85, 84, 84, 84, 82, 82, 82, 81, 82, 81, 82, 83, 82, 82, 81, 81, 80, 82, 79, 79, 80, 78, 79, 79, 75, 76, 78, 75, 75, 76, 76, 72, 73, 75, 73, 74, 72, 73, 73, 73, 74, 73, 73, 72, 74, 72, 70, 70, 70, 69, 66, 67, 68, 64, 64, 64, 61, 57 | 88, 85, 85, 85, 85, 84, 86, 85, 82, 82, 82, 82, 83, 83, 82, 82, 82, 82, 82, 83, 79, 79, 81, 80, 79, 80, 80, 79, 76, 76, 76, 77, 76, 76, 76, 73, 74, 73, 73, 74, 73, 73, 73, 73, 74, 74, 74, 74, 74, 75, 71, 69, 70, 72, 68, 68, 69, 64, 64, 66, 63, 60 | 87, 86, 85, 86, 85, 84, 86, 85, 81, 84, 82, 82, 81, 82, 83, 82, 81, 82, 83, 81, 79, 79, 80, 82, 78, 80, 78, 81, 75, 76, 75, 76, 75, 77, 77, 72, 73, 72, 72, 73, 72, 72, 73, 73, 73, 73, 72, 73, 73, 73, 70, 68, 71, 71, 67, 67, 67, 64, 63, 64, 61, 58 | 88, 84, 84, 84, 84, 84, 85, 84, 83, 81, 83, 82, 82, 82, 82, 82, 82, 82, 81, 82, 79, 80, 79, 78, 81, 79, 79, 79, 75, 75, 76, 76, 75, 76, 75, 73, 73, 74, 73, 73, 73, 73, 72, 73, 72, 73, 73, 73, 73, 73, 70, 71, 71, 70, 67, 68, 68, 65, 64, 65, 61, 59 | 88, 86, 85, 85, 85, 84, 85, 86, 81, 82, 82, 81, 82, 81, 82, 82, 82, 81, 82, 82, 79, 78, 80, 80, 79, 81, 78, 79, 75, 75, 75, 76, 75, 75, 76, 72, 73, 72, 72, 74, 73, 73, 73, 72, 73, 73, 72, 73, 73, 74, 70, 69, 71, 70, 67, 67, 67, 64, 63, 64, 61, 59 | 88, 84, 84, 86, 85, 85, 85, 84, 82, 81, 82, 82, 83, 83, 82, 82, 82, 82, 83, 83, 80, 79, 80, 78, 79, 78, 82, 78, 76, 76, 75, 75, 77, 75, 75, 74, 72, 73, 75, 73, 73, 73, 73, 75, 74, 74, 74, 73, 73, 73, 69, 70, 69, 72, 68, 68, 68, 64, 66, 66, 62, 60 | 88, 86, 84, 85, 85, 84, 85, 84, 82, 83, 82, 83, 81, 81, 83, 82, 81, 82, 83, 81, 78, 79, 79, 81, 79, 79, 78, 82, 76, 75, 75, 75, 75, 77, 76, 72, 73, 73, 72, 73, 73, 72, 73, 74, 73, 73, 72, 73, 73, 72, 70, 70, 71, 68, 66, 68, 67, 65, 64, 64, 60, 57 | 86, 82, 83, 83, 83, 83, 83, 83, 79, 79, 80, 80, 80, 79, 79, 79, 80, 80, 80, 80, 75, 75, 76, 75, 75, 75, 76, 76, 75, 73, 72, 74, 73, 73, 72, 71, 69, 70, 70, 69, 71, 70, 70, 70, 70, 69, 70, 69, 69, 71, 67, 67, 67, 67, 64, 64, 63, 61, 62, 61, 57, 54 | 85, 82, 82, 83, 83, 83, 83, 83, 80, 79, 80, 79, 80, 80, 79, 80, 80, 80, 79, 79, 76, 76, 76, 76, 75, 75, 76, 75, 73, 75, 74, 72, 72, 74, 73, 68, 70, 69, 70, 71, 69, 69, 69, 69, 71, 69, 69, 69, 68, 70, 67, 65, 66, 67, 63, 63, 62, 59, 59, 59, 56, 53 | 85, 83, 83, 82, 82, 84, 82, 83, 81, 80, 79, 79, 79, 79, 79, 80, 80, 80, 79, 80, 76, 78, 76, 75, 76, 75, 75, 75, 72, 74, 76, 72, 72, 73, 74, 69, 70, 70, 70, 71, 68, 69, 69, 69, 71, 69, 68, 68, 69, 69, 66, 64, 66, 65, 61, 62, 62, 61, 59, 58, 55, 52 | 87, 82, 84, 83, 83, 82, 84, 83, 78, 79, 80, 79, 80, 80, 79, 79, 80, 79, 79, 80, 76, 75, 77, 76, 76, 76, 75, 75, 74, 72, 72, 75, 72, 72, 72, 71, 70, 70, 69, 68, 70, 69, 69, 69, 68, 68, 70, 69, 70, 72, 66, 66, 66, 68, 64, 63, 64, 60, 60, 60, 58, 54 | 87, 82, 83, 83, 83, 82, 83, 83, 79, 79, 80, 79, 80, 80, 79, 80, 79, 79, 80, 80, 76, 75, 76, 75, 75, 75, 77, 75, 73, 72, 72, 72, 75, 72, 72, 71, 68, 69, 71, 69, 70, 70, 69, 70, 69, 70, 69, 69, 70, 69, 65, 67, 65, 67, 63, 62, 62, 59, 60, 59, 57, 54 | 86, 83, 82, 82, 83, 82, 84, 82, 80, 79, 79, 80, 79, 80, 80, 80, 80, 80, 79, 78, 75, 76, 76, 77, 76, 75, 75, 77, 73, 74, 73, 72, 72, 75, 73, 68, 71, 70, 69, 70, 69, 69, 69, 69, 70, 71, 68, 69, 68, 68, 67, 66, 67, 66, 61, 64, 63, 60, 59, 59, 56, 52 | 86, 83, 83, 83, 83, 83, 83, 83, 80, 80, 79, 80, 79, 79, 80, 80, 79, 80, 79, 79, 77, 76, 76, 77, 75, 76, 75, 76, 72, 73, 74, 72, 72, 73, 75, 68, 69, 69, 69, 71, 68, 69, 69, 69, 70, 69, 68, 69, 69, 69, 66, 65, 66, 65, 62, 62, 61, 59, 58, 58, 56, 52 | 85, 80, 81, 80, 80, 80, 80, 81, 76, 76, 77, 77, 77, 77, 76, 76, 77, 76, 76, 79, 72, 72, 73, 72, 73, 72, 74, 72, 71, 68, 69, 71, 71, 68, 68, 71, 65, 67, 67, 64, 68, 67, 66, 67, 64, 66, 67, 65, 67, 66, 62, 63, 61, 64, 58, 60, 60, 57, 58, 56, 52, 48 | 84, 81, 80, 80, 81, 80, 81, 80, 76, 76, 76, 77, 77, 77, 77, 76, 78, 77, 76, 76, 72, 73, 74, 73, 73, 73, 72, 73, 69, 70, 70, 70, 68, 71, 69, 65, 68, 66, 64, 66, 65, 65, 65, 64, 66, 66, 66, 66, 65, 66, 63, 61, 62, 62, 57, 60, 59, 55, 54, 55, 51, 46 | 85, 80, 80, 80, 81, 80, 80, 80, 77, 76, 78, 77, 78, 76, 76, 77, 77, 77, 76, 77, 74, 75, 73, 72, 74, 72, 73, 73, 70, 69, 70, 70, 69, 70, 69, 67, 66, 69, 66, 65, 66, 66, 65, 67, 65, 66, 67, 65, 67, 65, 61, 63, 62, 62, 58, 60, 60, 54, 55, 56, 52, 47 | 85, 80, 80, 81, 81, 81, 80, 81, 77, 76, 77, 76, 78, 77, 76, 77, 77, 77, 77, 78, 73, 73, 73, 72, 73, 72, 75, 72, 70, 70, 70, 69, 71, 69, 69, 67, 64, 66, 68, 66, 66, 66, 65, 67, 67, 67, 66, 65, 66, 65, 62, 62, 61, 63, 58, 58, 58, 55, 56, 56, 52, 48 | 84, 81, 80, 81, 81, 81, 80, 81, 77, 77, 77, 76, 77, 76, 77, 77, 77, 77, 77, 76, 73, 74, 74, 73, 73, 74, 73, 73, 69, 71, 71, 68, 69, 70, 71, 64, 66, 65, 66, 68, 65, 65, 66, 65, 68, 66, 65, 66, 65, 66, 63, 60, 62, 61, 58, 58, 57, 55, 53, 54, 50, 47 | 86, 80, 81, 80, 80, 80, 81, 81, 76, 76, 78, 77, 77, 76, 76, 77, 76, 76, 77, 77, 73, 72, 73, 72, 73, 73, 73, 73, 71, 69, 68, 70, 70, 69, 68, 68, 65, 66, 66, 65, 68, 67, 66, 67, 64, 66, 66, 67, 66, 66, 62, 64, 62, 63, 59, 59, 58, 56, 56, 55, 52, 50 | 85, 80, 80, 80, 81, 80, 80, 81, 76, 76, 77, 77, 77, 76, 77, 77, 76, 76, 76, 77, 73, 73, 73, 72, 73, 73, 73, 72, 70, 69, 69, 69, 70, 69, 69, 67, 65, 66, 66, 65, 67, 68, 67, 66, 64, 66, 66, 65, 66, 65, 61, 63, 61, 62, 59, 58, 57, 56, 55, 54, 52, 48 | 84, 80, 80, 81, 80, 80, 81, 81, 76, 76, 76, 77, 77, 76, 78, 77, 76, 76, 77, 76, 73, 73, 73, 73, 72, 73, 73, 73, 70, 69, 69, 69, 69, 69, 69, 66, 65, 65, 65, 66, 66, 67, 68, 67, 65, 66, 65, 65, 66, 65, 62, 62, 62, 61, 58, 58, 56, 56, 54, 53, 50, 47 | 85, 80, 80, 81, 81, 80, 81, 80, 77, 77, 78, 77, 77, 77, 77, 77, 76, 76, 78, 77, 74, 73, 73, 73, 73, 72, 75, 74, 70, 69, 69, 69, 70, 69, 69, 67, 64, 67, 67, 65, 67, 66, 67, 68, 66, 67, 66, 66, 67, 65, 62, 63, 62, 63, 58, 58, 58, 56, 56, 55, 51, 49 | 84, 80, 80, 81, 81, 82, 80, 80, 77, 77, 77, 76, 78, 77, 76, 77, 78, 77, 77, 77, 73, 74, 74, 73, 72, 73, 74, 73, 70, 71, 71, 68, 69, 70, 70, 64, 66, 65, 67, 68, 64, 64, 65, 66, 69, 66, 66, 66, 65, 66, 63, 60, 62, 62, 58, 58, 57, 54, 55, 55, 50, 47 | 85, 80, 80, 80, 81, 80, 81, 80, 77, 76, 77, 77, 77, 77, 77, 77, 77, 77, 77, 76, 72, 73, 74, 73, 73, 73, 74, 73, 69, 69, 69, 68, 70, 71, 69, 66, 66, 66, 67, 66, 66, 66, 66, 67, 66, 68, 65, 66, 65, 64, 63, 64, 62, 62, 56, 60, 58, 55, 55, 55, 51, 48 | 85, 80, 80, 81, 81, 80, 80, 80, 76, 76, 77, 77, 79, 77, 76, 76, 77, 76, 76, 78, 74, 73, 74, 72, 73, 72, 74, 72, 70, 69, 68, 70, 69, 68, 68, 67, 66, 67, 66, 65, 66, 66, 65, 66, 66, 65, 68, 65, 67, 67, 61, 62, 61, 64, 60, 60, 60, 53, 56, 56, 53, 47 | 85, 81, 81, 80, 81, 80, 81, 80, 76, 77, 78, 77, 77, 76, 77, 77, 76, 76, 77, 77, 73, 72, 74, 73, 73, 73, 73, 73, 69, 69, 68, 69, 69, 69, 69, 65, 66, 65, 65, 66, 67, 65, 65, 66, 66, 66, 65, 68, 66, 67, 63, 62, 62, 62, 59, 58, 58, 55, 53, 55, 50, 49 | 85, 80, 81, 81, 81, 80, 81, 81, 76, 77, 78, 77, 78, 77, 76, 76, 76, 76, 76, 78, 74, 74, 74, 73, 73, 73, 73, 73, 69, 68, 69, 70, 70, 68, 69, 67, 65, 67, 66, 65, 66, 66, 66, 67, 65, 65, 67, 66, 68, 66, 61, 61, 61, 64, 58, 58, 60, 55, 55, 55, 53, 47 | 85, 80, 82, 81, 80, 80, 82, 81, 76, 77, 78, 76, 78, 77, 76, 77, 78, 77, 77, 78, 73, 72, 75, 73, 73, 74, 73, 72, 71, 70, 69, 72, 69, 68, 69, 66, 66, 65, 65, 66, 66, 65, 65, 65, 66, 64, 67, 67, 66, 71, 62, 61, 63, 64, 61, 59, 59, 55, 54, 56, 52, 50 | 83, 78, 79, 78, 79, 79, 80, 79, 74, 74, 75, 74, 75, 74, 74, 74, 75, 74, 74, 74, 69, 70, 71, 70, 70, 70, 69, 70, 67, 67, 66, 66, 65, 67, 66, 62, 63, 61, 62, 63, 62, 61, 62, 62, 63, 63, 61, 63, 61, 62, 60, 58, 58, 58, 53, 54, 52, 51, 49, 49, 44, 43 | 84, 77, 78, 77, 79, 78, 79, 78, 75, 73, 75, 75, 74, 74, 74, 75, 75, 73, 74, 74, 69, 70, 69, 68, 71, 69, 70, 70, 67, 65, 64, 66, 67, 66, 65, 63, 61, 63, 62, 60, 64, 63, 62, 63, 60, 64, 62, 62, 61, 61, 58, 62, 58, 56, 53, 55, 54, 50, 50, 51, 45, 43 | 83, 79, 78, 79, 79, 78, 79, 79, 75, 75, 75, 74, 74, 74, 75, 75, 75, 74, 75, 74, 70, 70, 70, 71, 71, 71, 69, 71, 67, 66, 66, 66, 65, 67, 66, 61, 62, 62, 61, 62, 62, 61, 62, 62, 62, 62, 61, 62, 61, 63, 58, 58, 60, 57, 53, 54, 53, 50, 49, 50, 44, 41 | 83, 77, 80, 79, 80, 78, 80, 79, 73, 74, 76, 74, 76, 77, 73, 74, 74, 74, 75, 76, 72, 69, 72, 71, 70, 70, 72, 68, 67, 67, 65, 68, 67, 66, 65, 64, 62, 62, 63, 61, 63, 62, 61, 63, 62, 62, 64, 62, 64, 64, 58, 56, 57, 64, 56, 54, 55, 49, 51, 51, 49, 45 | 81, 75, 77, 77, 77, 76, 77, 76, 71, 72, 73, 72, 73, 72, 70, 72, 72, 72, 72, 73, 68, 66, 68, 67, 67, 67, 68, 66, 64, 63, 61, 64, 63, 61, 62, 58, 57, 58, 58, 58, 59, 59, 58, 58, 58, 56, 60, 59, 58, 61, 53, 53, 53, 56, 54, 49, 49, 44, 46, 46, 43, 37 | 82, 76, 76, 76, 77, 76, 77, 76, 72, 71, 72, 73, 72, 72, 72, 71, 73, 72, 72, 72, 66, 67, 68, 67, 68, 67, 68, 68, 64, 63, 62, 63, 62, 64, 62, 60, 60, 60, 58, 58, 59, 58, 58, 58, 58, 60, 60, 58, 58, 59, 54, 55, 54, 54, 49, 52, 52, 44, 46, 47, 42, 36 | 82, 76, 76, 76, 77, 76, 77, 75, 72, 71, 73, 72, 73, 73, 71, 71, 72, 72, 71, 73, 67, 68, 69, 67, 68, 67, 68, 67, 63, 62, 62, 64, 62, 63, 61, 60, 59, 60, 58, 57, 58, 57, 56, 58, 57, 58, 60, 58, 60, 59, 52, 54, 53, 55, 49, 52, 54, 43, 45, 48, 43, 35 | 80, 74, 75, 74, 74, 73, 75, 76, 70, 69, 70, 69, 68, 68, 70, 70, 69, 69, 69, 70, 64, 64, 64, 64, 65, 64, 64, 65, 61, 59, 61, 60, 59, 60, 59, 57, 55, 54, 55, 55, 56, 56, 56, 56, 54, 55, 53, 55, 55, 55, 51, 50, 50, 49, 44, 44, 43, 45, 40, 39, 33, 32 | 80, 73, 74, 75, 75, 74, 74, 75, 69, 68, 69, 70, 70, 70, 68, 68, 70, 69, 70, 71, 64, 64, 64, 63, 64, 63, 66, 64, 62, 59, 59, 60, 60, 59, 58, 58, 54, 55, 56, 53, 56, 55, 54, 56, 55, 55, 56, 53, 55, 54, 49, 50, 49, 51, 46, 46, 45, 40, 44, 41, 36, 30 | 80, 73, 74, 75, 75, 74, 75, 73, 69, 68, 70, 70, 71, 70, 68, 68, 71, 69, 70, 71, 64, 64, 66, 64, 65, 64, 66, 64, 61, 59, 58, 60, 59, 59, 58, 56, 55, 56, 56, 54, 55, 54, 53, 55, 55, 55, 56, 55, 55, 56, 49, 51, 50, 51, 46, 47, 48, 39, 41, 44, 36, 31 | 79, 71, 72, 72, 73, 71, 72, 72, 66, 66, 68, 67, 68, 68, 65, 66, 67, 67, 66, 68, 63, 61, 63, 61, 61, 61, 62, 60, 57, 56, 55, 58, 57, 56, 56, 52, 51, 52, 52, 50, 52, 52, 50, 51, 50, 51, 53, 50, 53, 52, 44, 45, 44, 49, 43, 42, 43, 33, 36, 36, 36, 24 | 77, 69, 71, 70, 70, 69, 72, 71, 64, 64, 67, 64, 65, 65, 64, 65, 64, 64, 65, 66, 59, 57, 60, 58, 59, 59, 60, 57, 54, 53, 52, 54, 54, 52, 52, 48, 46, 47, 48, 47, 50, 48, 47, 49, 47, 48, 47, 49, 47, 50, 43, 43, 41, 45, 37, 36, 35, 32, 30, 31, 24, 25 |];
